4 5 1.0 0 0 0 0 4103 4103
0 1 0 1 0
0 0 5 -1 1 4 6 -1 1 2 19 -1 1 5 10 -1 1 3 8 -1 1 1 16 
0 0 5 -1 1 1 18 -1 1 3 13 -1 1 4 19 -1 1 2 14 -1 1 5 6 
0 0 5 -1 1 5 19 -1 1 3 5 -1 1 4 10 -1 1 2 10 -1 1 1 14 
0 0 5 -1 1 4 8 -1 1 3 11 -1 1 5 7 -1 1 2 14 -1 1 1 10 
